2025-10-11 22:03:02,147 - INFO - 📌 第一个 epoch：默认所有模块使用 checkpoint
2025-10-11 22:03:06,244 - INFO - Epoch 1 completed in 4.100640 seconds
2025-10-11 22:03:07,118 - INFO - torch.cuda.max_memory_reserved() : 1.029296875
2025-10-11 22:03:11,702 - INFO - 
[🔁 拟合反向传播时间模型]
2025-10-11 22:03:11,702 - INFO - 总反向传播时间: 4.556955s
2025-10-11 22:03:11,702 - INFO - 拟合模型: backward_total ≈ 2 × (A + B) + b
2025-10-11 22:03:11,703 - INFO - A = 2.423090, B = 0.224387, b = 1.909478s
2025-10-11 22:03:11,726 - INFO - Set parameter LicenseID to value 2706656
2025-10-11 22:03:11,730 - INFO - Set parameter LogToConsole to value 1
2025-10-11 22:03:11,731 - INFO - Set parameter LogFile to value ""
2025-10-11 22:03:11,731 - INFO - Set parameter Threads to value 12
2025-10-11 22:03:11,731 - INFO - Set parameter TimeLimit to value 3600
2025-10-11 22:03:11,731 - INFO - Set parameter OptimalityTol to value 0.0001
2025-10-11 22:03:11,731 - INFO - Set parameter IntFeasTol to value 1e-05
2025-10-11 22:03:11,731 - INFO - Set parameter StartNodeLimit to value 10000000
2025-10-11 22:03:11,802 - INFO - Set parameter TimeLimit to value 3600
2025-10-11 22:03:11,802 - INFO - 
2025-10-11 22:03:11,802 - INFO - 
2025-10-11 22:03:11,802 - INFO - Restarting solve
2025-10-11 22:03:11,802 - INFO - 
2025-10-11 22:03:11,802 - INFO - 
2025-10-11 22:03:11,804 - INFO - Gurobi Optimizer version 12.0.3 build v12.0.3rc0 (linux64 - "Ubuntu 20.04.6 LTS")
2025-10-11 22:03:11,804 - INFO - 
2025-10-11 22:03:11,805 - INFO - CPU model: Intel(R) Xeon(R) Platinum 8260 CPU @ 2.40GHz, instruction set [SSE2|AVX|AVX2|AVX512]
2025-10-11 22:03:11,805 - INFO - Thread count: 48 physical cores, 96 logical processors, using up to 12 threads
2025-10-11 22:03:11,805 - INFO - 
2025-10-11 22:03:11,805 - INFO - Non-default parameters:
2025-10-11 22:03:11,805 - INFO - TimeLimit  3600
2025-10-11 22:03:11,805 - INFO - OptimalityTol  0.0001
2025-10-11 22:03:11,805 - INFO - StartNodeLimit  10000000
2025-10-11 22:03:11,805 - INFO - Threads  12
2025-10-11 22:03:11,805 - INFO - 
2025-10-11 22:03:11,805 - INFO - Optimize a model with 5603 rows, 3584 columns and 15200 nonzeros
2025-10-11 22:03:11,805 - INFO - Model fingerprint: 0xf7be2cb7
2025-10-11 22:03:11,805 - INFO - Variable types: 1024 continuous, 2560 integer (2560 binary)
2025-10-11 22:03:11,805 - INFO - Coefficient statistics:
2025-10-11 22:03:11,805 - INFO -   Matrix range     [1e+00, 3e+14]
2025-10-11 22:03:11,805 - INFO -   Objective range  [5e+04, 2e+05]
2025-10-11 22:03:11,805 - INFO -   Bounds range     [1e+00, 2e+15]
2025-10-11 22:03:11,805 - INFO -   RHS range        [1e+00, 2e+15]
2025-10-11 22:03:11,806 - INFO - Warning: Model contains large matrix coefficient range
2025-10-11 22:03:11,806 - INFO - Warning: Model contains large rhs
2025-10-11 22:03:11,806 - INFO - Warning: Model contains large bounds
2025-10-11 22:03:11,806 - INFO -          Consider reformulating model or setting NumericFocus parameter
2025-10-11 22:03:11,806 - INFO -          to avoid numerical issues.
2025-10-11 22:03:11,821 - INFO - Presolve removed 4376 rows and 2059 columns
2025-10-11 22:03:11,821 - INFO - Presolve time: 0.01s
2025-10-11 22:03:11,821 - INFO - Presolved: 1227 rows, 1525 columns, 4322 nonzeros
2025-10-11 22:03:11,823 - INFO - Variable types: 0 continuous, 1525 integer (1091 binary)
2025-10-11 22:03:11,834 - INFO - 
2025-10-11 22:03:11,834 - INFO - Root relaxation: objective 3.946212e+06, 451 iterations, 0.00 seconds (0.00 work units)
2025-10-11 22:03:11,845 - INFO - 
2025-10-11 22:03:11,845 - INFO -     Nodes    |    Current Node    |     Objective Bounds      |     Work
2025-10-11 22:03:11,845 - INFO -  Expl Unexpl |  Obj  Depth IntInf | Incumbent    BestBd   Gap | It/Node Time
2025-10-11 22:03:11,845 - INFO - 
2025-10-11 22:03:11,845 - INFO -      0     0 3946212.39    0    8          - 3946212.39      -     -    0s
2025-10-11 22:03:11,848 - INFO - H    0     0                    4008374.0000 3946212.39  1.55%     -    0s
2025-10-11 22:03:11,853 - INFO - H    0     0                    3992765.0000 3946212.39  1.17%     -    0s
2025-10-11 22:03:11,873 - INFO -      0     0 3983455.00    0    2 3992765.00 3983455.00  0.23%     -    0s
2025-10-11 22:03:11,893 - INFO -      0     0     cutoff    0      3992765.00 3992765.00  0.00%     -    0s
2025-10-11 22:03:11,894 - INFO - 
2025-10-11 22:03:11,894 - INFO - Explored 1 nodes (614 simplex iterations) in 0.09 seconds (0.04 work units)
2025-10-11 22:03:11,894 - INFO - Thread count was 12 (of 96 available processors)
2025-10-11 22:03:11,894 - INFO - 
2025-10-11 22:03:11,894 - INFO - Solution count 3: 3.99276e+06 4.00837e+06 4.10565e+06 
2025-10-11 22:03:11,894 - INFO - 
2025-10-11 22:03:11,894 - INFO - Optimal solution found (tolerance 1.00e-04)
2025-10-11 22:03:11,894 - INFO - Best objective 3.992765000000e+06, best bound 3.992765000000e+06, gap 0.0000%
2025-10-11 22:03:11,908 - INFO - 规划前的显存GB：1.5
2025-10-11 22:03:11,908 - INFO - 规划后的显存GB：1.336998462677002
2025-10-11 22:03:11,908 - INFO - ✅ 最优策略：[1, 1, 1, 1, 1, 1, 1, 1, 0, 1, 0, 0, 0, 0, 0, 1]
2025-10-11 22:03:11,908 - INFO - 📌 checkpoint 的欧氏长度:, []
2025-10-11 22:03:11,908 - INFO - 📌 checkpoint 的余弦长度:, [119, 358, 478, 597, 717, 837]
2025-10-11 22:03:11,908 - INFO - 💾 最终显存峰值：%.2f MB % 1780.8826751708984
2025-10-11 22:03:11,909 - INFO - Epoch 2 completed in 4.789883 seconds
2025-10-11 22:03:11,909 - INFO - torch.cuda.max_memory_reserved() : 1.029296875
2025-10-11 22:03:15,331 - INFO - Epoch 3 completed in 3.421706 seconds
2025-10-11 22:03:15,331 - INFO - 
====================== [第1个 Epoch 收集统计数据] ======================
2025-10-11 22:03:15,331 - INFO - 
🔍 EUCLIDEAN modules:
2025-10-11 22:03:15,331 - INFO - [Shapelet 119] forward_avg=0.001963s over 26 calls | peak=72.20MB | final=0.00MB
2025-10-11 22:03:15,331 - INFO - [Shapelet 238] forward_avg=0.001656s over 26 calls | peak=126.95MB | final=0.00MB
2025-10-11 22:03:15,331 - INFO - [Shapelet 358] forward_avg=0.001721s over 26 calls | peak=169.17MB | final=0.00MB
2025-10-11 22:03:15,331 - INFO - [Shapelet 478] forward_avg=0.001823s over 26 calls | peak=193.41MB | final=0.00MB
2025-10-11 22:03:15,331 - INFO - [Shapelet 597] forward_avg=0.001788s over 26 calls | peak=199.65MB | final=0.00MB
2025-10-11 22:03:15,331 - INFO - [Shapelet 717] forward_avg=0.001739s over 26 calls | peak=193.90MB | final=0.00MB
2025-10-11 22:03:15,331 - INFO - [Shapelet 837] forward_avg=0.001660s over 26 calls | peak=170.03MB | final=0.00MB
2025-10-11 22:03:15,332 - INFO - [Shapelet 957] forward_avg=0.001707s over 26 calls | peak=129.44MB | final=0.00MB
2025-10-11 22:03:15,332 - INFO - 
🔍 COSINE modules:
2025-10-11 22:03:15,332 - INFO - [Shapelet 119] forward_avg=0.002255s over 26 calls | peak=47.22MB | final=0.00MB
2025-10-11 22:03:15,332 - INFO - [Shapelet 238] forward_avg=0.002114s over 26 calls | peak=83.85MB | final=0.00MB
2025-10-11 22:03:15,332 - INFO - [Shapelet 358] forward_avg=0.002118s over 26 calls | peak=112.15MB | final=0.00MB
2025-10-11 22:03:15,332 - INFO - [Shapelet 478] forward_avg=0.002126s over 26 calls | peak=128.13MB | final=0.00MB
2025-10-11 22:03:15,332 - INFO - [Shapelet 597] forward_avg=0.002155s over 26 calls | peak=132.11MB | final=0.00MB
2025-10-11 22:03:15,332 - INFO - [Shapelet 717] forward_avg=0.002111s over 26 calls | peak=128.09MB | final=0.00MB
2025-10-11 22:03:15,332 - INFO - [Shapelet 837] forward_avg=0.002074s over 26 calls | peak=112.07MB | final=0.00MB
2025-10-11 22:03:15,332 - INFO - [Shapelet 957] forward_avg=0.002057s over 26 calls | peak=84.51MB | final=0.00MB
2025-10-11 22:03:15,332 - INFO - 
🔍 CROSS modules:
2025-10-11 22:03:15,332 - INFO - [Shapelet 119] forward_avg=0.000545s over 26 calls
2025-10-11 22:03:15,332 - INFO - [Shapelet 238] forward_avg=0.000499s over 26 calls
2025-10-11 22:03:15,332 - INFO - [Shapelet 358] forward_avg=0.000474s over 26 calls
2025-10-11 22:03:15,332 - INFO - [Shapelet 478] forward_avg=0.000494s over 26 calls
2025-10-11 22:03:15,332 - INFO - [Shapelet 597] forward_avg=0.000520s over 26 calls
2025-10-11 22:03:15,332 - INFO - [Shapelet 717] forward_avg=0.000562s over 26 calls
2025-10-11 22:03:15,332 - INFO - [Shapelet 837] forward_avg=0.000592s over 26 calls
2025-10-11 22:03:15,332 - INFO - [Shapelet 957] forward_avg=0.000630s over 26 calls
2025-10-11 22:03:15,332 - INFO - 
💾 模型第一次反向传播阶段的显存峰值（所有模块中的最大值）: 1050.74 MB
2025-10-11 22:03:15,332 - INFO - 
💾 模型初始显存: 5.08 MB
2025-10-11 22:03:15,332 - INFO - =======================================================================

2025-10-11 22:03:15,332 - INFO - torch.cuda.max_memory_reserved() : 1.630859375
2025-10-11 22:03:18,373 - INFO - Epoch 4 completed in 3.039983 seconds
2025-10-11 22:03:18,373 - INFO - torch.cuda.max_memory_reserved() : 1.630859375
2025-10-11 22:03:21,420 - INFO - Epoch 5 completed in 3.046759 seconds
2025-10-11 22:03:21,421 - INFO - torch.cuda.max_memory_reserved() : 1.630859375
2025-10-11 22:03:24,526 - INFO - Epoch 6 completed in 3.104132 seconds
2025-10-11 22:03:24,526 - INFO - torch.cuda.max_memory_reserved() : 1.630859375
2025-10-11 22:03:27,627 - INFO - Epoch 7 completed in 3.099859 seconds
2025-10-11 22:03:27,627 - INFO - torch.cuda.max_memory_reserved() : 1.630859375
2025-10-11 22:03:30,661 - INFO - Epoch 8 completed in 3.033223 seconds
2025-10-11 22:03:30,662 - INFO - torch.cuda.max_memory_reserved() : 1.630859375
2025-10-11 22:03:33,688 - INFO - Epoch 9 completed in 3.024799 seconds
2025-10-11 22:03:33,689 - INFO - torch.cuda.max_memory_reserved() : 1.630859375
2025-10-11 22:03:36,720 - INFO - Epoch 10 completed in 3.030340 seconds
2025-10-11 22:03:37,362 - INFO - torch.cuda.max_memory_reserved() : 1.630859375
2025-10-11 22:03:37,363 - INFO - !!!采用策略后的几个epoch 平均时间:3.100100100040436
2025-10-11 22:03:37,363 - INFO - 



